Route #1: 0 20 71 55 112 3 78 39 49 109 43 76 98 13 75 9 15 79 21 93 16 52 0
Route #2: 0 116 96 54 87 62 40 111 34 11 92 90 114 8 82 113 2 42 45 70 25 31 0
Route #3: 0 50 38 73 67 30 118 33 36 14 58 12 91 32 29 80 84 94 10 119 61 107 0
Route #4: 0 64 99 44 83 28 19 17 103 41 117 108 66 46 97 7 106 74 65 86 115 23 0
Route #5: 0 72 102 27 56 24 37 57 77 100 59 22 4 95 60 68 51 85 69 81 53 6 0
Route #6: 0 35 1 89 63 104 105 101 47 5 26 18 110 48 88 0
Cost 17562:
